# Objective value = 2.9964317529212974e+02
x[0] 0
x[1] 0
x[2] 1
x[3] 1
x[4] 0
x[5] 1
x[6] 0
x[7] 0
x[8] 0
x[9] 0
x[10] 0
x[11] 0
x[12] 1
x[13] 0
x[14] 1
x[15] 1
x[16] 0
x[17] 1
x[18] 0
x[19] 0
x[20] 1
x[21] 0
x[22] 0
x[23] 0
x[24] 0
x[25] 0
x[26] 0
x[27] 0
x[28] 1
x[29] 1
x[30] 0
x[31] 0
x[32] 0
x[33] 1
x[34] 1
x[35] 0
x[36] 0
x[37] 0
x[38] 1
x[39] 1
x[40] 0
x[41] 0
x[42] 0
x[43] 0
x[44] 0
x[45] 1
x[46] 0
x[47] 0
x[48] 1
x[49] 0
x[50] 0
x[51] 0
x[52] 1
x[53] 0
x[54] 0
x[55] 0
x[56] 1
x[57] 1
x[58] 1
x[59] 1
x[60] 1
x[61] 0
x[62] 1
x[63] 0
x[64] 1
x[65] 0
x[66] 1
x[67] 0
x[68] 1
x[69] 0
x[70] 1
x[71] 1
x[72] 0
x[73] 1
x[74] 1
x[75] 1
x[76] 1
x[77] 0
x[78] 1
x[79] 1
x[80] 1
x[81] 1
x[82] 1
x[83] 0
x[84] 1
x[85] 0
x[86] 0
x[87] 1
x[88] 1
x[89] 0
x[90] 0
x[91] 0
x[92] 1
x[93] 0
x[94] 1
x[95] 0
x[96] 1
x[97] 1
x[98] 0
x[99] 1
x[100] 1
x[101] 1
x[102] 1
x[103] 1
x[104] 0
x[105] 1
x[106] 0
x[107] 0
x[108] 0
x[109] 1
x[110] 0
x[111] 1
x[112] 1
x[113] 1
x[114] 0
x[115] 0
x[116] 0
x[117] 0
x[118] 1
x[119] 1
x[120] 0
x[121] 1
x[122] 1
x[123] 1
x[124] 0
x[125] 1
x[126] 1
x[127] 0
x[128] 1
x[129] 0
x[130] 1
x[131] 1
x[132] 0
x[133] 0
x[134] 1
x[135] 1
x[136] 0
x[137] 1
x[138] 0
x[139] 0
x[140] 1
x[141] 1
x[142] 0
x[143] 1
x[144] 0
x[145] 0
x[146] 1
x[147] 0
x[148] 1
x[149] 0
x[150] 0
x[151] 1
x[152] 1
x[153] 1
x[154] 1
x[155] 1
x[156] 1
x[157] 1
x[158] 1
x[159] 1
x[160] 1
x[161] 1
x[162] 1
x[163] 1
x[164] 0
x[165] 0
x[166] 0
x[167] 1
x[168] 0
x[169] 0
x[170] 1
x[171] 1
x[172] 1
x[173] 0
x[174] 0
x[175] 0
x[176] 1
x[177] 1
x[178] 0
x[179] 0
x[180] 1
x[181] 0
x[182] 1
x[183] 1
x[184] 1
x[185] 0
x[186] 0
x[187] 1
x[188] 0
x[189] 0
x[190] 0
x[191] 0
x[192] 0
x[193] 1
x[194] 0
x[195] 0
x[196] 1
x[197] 1
x[198] 1
x[199] 1
x[200] 1
x[201] 0
x[202] 1
x[203] 0
x[204] 0
x[205] 0
x[206] 0
x[207] 1
x[208] 1
x[209] 0
x[210] 0
x[211] 0
x[212] 0
x[213] 0
x[214] 0
x[215] 0
x[216] 1
x[217] 0
x[218] 0
x[219] 0
x[220] 1
x[221] 0
x[222] 1
x[223] 0
x[224] 1
x[225] 0
x[226] 0
x[227] 0
x[228] 0
x[229] 1
x[230] 0
x[231] 1
x[232] 1
x[233] 1
x[234] 1
x[235] 1
x[236] 0
x[237] 1
x[238] 0
x[239] 0
x[240] 1
x[241] 0
x[242] 0
x[243] 0
x[244] 0
x[245] 0
x[246] 1
x[247] 0
x[248] 0
x[249] 1
x[250] 1
x[251] 1
x[252] 1
x[253] 1
x[254] 1
x[255] 0
x[256] 0
x[257] 0
x[258] 0
x[259] 1
x[260] 1
x[261] 0
x[262] 0
x[263] 0
x[264] 1
x[265] 1
x[266] 1
x[267] 1
x[268] 0
x[269] 1
x[270] 0
x[271] 0
x[272] 0
x[273] 1
x[274] 0
x[275] 0
x[276] 0
x[277] 1
x[278] 0
x[279] 1
x[280] 0
x[281] 0
x[282] 0
x[283] 1
x[284] 0
x[285] 0
x[286] 0
x[287] 0
x[288] 0
x[289] 0
x[290] 0
x[291] 1
x[292] 1
x[293] 0
x[294] 0
x[295] 0
x[296] 0
x[297] 0
x[298] 1
x[299] 1
x[300] 1
x[301] 0
x[302] 0
x[303] 1
x[304] 0
x[305] 0
x[306] 0
x[307] 0
x[308] 0
x[309] 0
x[310] 1
x[311] 0
x[312] 1
x[313] 1
x[314] 1
x[315] 0
x[316] 0
x[317] 1
x[318] 0
x[319] 1
x[320] 1
x[321] 1
x[322] 1
x[323] 1
x[324] 1
x[325] 1
x[326] 0
x[327] 1
x[328] 1
x[329] 1
x[330] 1
x[331] 1
x[332] 1
x[333] 1
x[334] 0
x[335] 0
x[336] 0
x[337] 0
x[338] 1
x[339] 1
x[340] 1
x[341] 0
x[342] 0
x[343] 1
x[344] 1
x[345] 0
x[346] 1
x[347] 0
x[348] 0
x[349] 0
x[350] 0
x[351] 1
x[352] 1
x[353] 0
x[354] 1
x[355] 0
x[356] 1
x[357] 0
x[358] 0
x[359] 1
x[360] 0
x[361] 0
x[362] 1
x[363] 0
x[364] 1
x[365] 0
x[366] 1
x[367] 0
x[368] 1
x[369] 1
x[370] 0
x[371] 1
x[372] 1
x[373] 0
x[374] 1
x[375] 0
x[376] 0
x[377] 1
x[378] 0
x[379] 1
x[380] 0
x[381] 0
x[382] 0
x[383] 1
x[384] 1
x[385] 0
x[386] 1
x[387] 1
x[388] 0
x[389] 0
x[390] 1
x[391] 1
x[392] 0
x[393] 1
x[394] 0
x[395] 0
x[396] 0
x[397] 0
x[398] 0
x[399] 1
x[400] 1
x[401] 1
x[402] 1
x[403] 0
x[404] 1
x[405] 0
x[406] 0
x[407] 0
x[408] 0
x[409] 0
x[410] 0
x[411] 1
x[412] 1
x[413] 1
x[414] 0
x[415] 0
x[416] 1
x[417] 1
x[418] 1
x[419] 0
x[420] 1
x[421] 1
x[422] 0
x[423] 1
x[424] 0
x[425] 0
x[426] 0
x[427] 0
x[428] 0
x[429] 0
x[430] 1
x[431] 1
x[432] 0
x[433] 1
x[434] 1
x[435] 1
x[436] 1
x[437] 0
x[438] 0
x[439] 1
x[440] 1
x[441] 1
x[442] 0
x[443] 0
x[444] 0
x[445] 1
x[446] 0
x[447] 0
x[448] 0
x[449] 0
x[450] 0
x[451] 0
x[452] 0
x[453] 1
x[454] 1
x[455] 0
x[456] 1
x[457] 1
x[458] 0
x[459] 1
x[460] 0
x[461] 1
x[462] 0
x[463] 1
x[464] 1
x[465] 1
x[466] 0
x[467] 1
x[468] 0
x[469] 0
x[470] 0
x[471] 1
x[472] 1
x[473] 1
x[474] 0
x[475] 1
x[476] 1
x[477] 0
x[478] 0
x[479] 0
x[480] 1
x[481] 0
x[482] 0
x[483] 0
x[484] 0
x[485] 1
x[486] 0
x[487] 0
x[488] 0
x[489] 1
x[490] 0
x[491] 1
x[492] 1
x[493] 0
x[494] 0
x[495] 1
x[496] 1
x[497] 0
x[498] 0
x[499] 1
x[500] 0
x[501] 0
x[502] 0
x[503] 0
x[504] 1
x[505] 1
x[506] 0
x[507] 0
x[508] 0
x[509] 0
x[510] 1
x[511] 0
x[512] 1
x[513] 0
x[514] 0
x[515] 1
x[516] 0
x[517] 1
x[518] 1
x[519] 0
x[520] 1
x[521] 0
x[522] 1
x[523] 0
x[524] 0
x[525] 1
x[526] 0
x[527] 0
x[528] 1
x[529] 1
x[530] 0
x[531] 1
x[532] 0
x[533] 1
x[534] 0
x[535] 1
x[536] 0
x[537] 0
x[538] 1
x[539] 1
x[540] 1
x[541] 0
x[542] 0
x[543] 0
x[544] 1
x[545] 0
x[546] 1
x[547] 1
x[548] 0
x[549] 0
x[550] 1
x[551] 1
x[552] 1
x[553] 0
x[554] 1
x[555] 1
x[556] 0
x[557] 1
x[558] 0
x[559] 0
x[560] 1
x[561] 0
x[562] 1
x[563] 1
x[564] 1
x[565] 1
x[566] 0
x[567] 0
x[568] 0
x[569] 1
x[570] 0
x[571] 1
x[572] 1
x[573] 1
x[574] 1
x[575] 1
x[576] 1
x[577] 0
x[578] 0
x[579] 1
x[580] 0
x[581] 1
x[582] 1
x[583] 0
x[584] 1
x[585] 1
x[586] 0
x[587] 1
x[588] 0
x[589] 0
x[590] 0
x[591] 0
x[592] 0
x[593] 0
x[594] 0
x[595] 1
x[596] 0
x[597] 1
x[598] 1
x[599] 1
x[600] 0
x[601] 1
x[602] 0
x[603] 1
x[604] 0
x[605] 0
x[606] 1
x[607] 1
x[608] 1
x[609] 0
x[610] 0
x[611] 1
x[612] 1
x[613] 1
x[614] 1
x[615] 0
x[616] 0
x[617] 1
x[618] 0
x[619] 1
x[620] 1
x[621] 1
x[622] 0
x[623] 1
x[624] 1
x[625] 0
x[626] 1
x[627] 1
x[628] 0
x[629] 0
x[630] 0
x[631] 0
x[632] 0
x[633] 0
x[634] 0
x[635] 1
x[636] 1
x[637] 0
x[638] 0
x[639] 0
x[640] 0
x[641] 1
x[642] 0
x[643] 1
x[644] 1
x[645] 0
x[646] 0
x[647] 0
x[648] 1
x[649] 1
x[650] 1
x[651] 1
x[652] 0
x[653] 1
x[654] 1
x[655] 1
x[656] 1
x[657] 1
x[658] 0
x[659] 1
x[660] 1
x[661] 0
x[662] 1
x[663] 1
x[664] 0
x[665] 1
x[666] 0
x[667] 0
x[668] 1
x[669] 1
x[670] 0
x[671] 0
x[672] 1
x[673] 0
x[674] 0
x[675] 0
x[676] 1
x[677] 1
x[678] 0
x[679] 1
x[680] 1
x[681] 1
x[682] 1
x[683] 0
x[684] 0
x[685] 0
x[686] 0
x[687] 1
x[688] 1
x[689] 0
x[690] 1
x[691] 0
x[692] 0
x[693] 1
x[694] 0
x[695] 1
x[696] 0
x[697] 1
x[698] 1
x[699] 0
x[700] 1
x[701] 0
x[702] 1
x[703] 0
x[704] 1
x[705] 0
x[706] 1
x[707] 0
x[708] 0
x[709] 0
x[710] 1
x[711] 0
x[712] 0
x[713] 1
x[714] 0
x[715] 1
x[716] 1
x[717] 0
x[718] 1
x[719] 0
x[720] 1
x[721] 0
x[722] 1
x[723] 1
x[724] 1
x[725] 0
x[726] 0
x[727] 1
x[728] 0
x[729] 0
x[730] 1
x[731] 0
x[732] 0
x[733] 1
x[734] 0
x[735] 1
x[736] 1
x[737] 1
x[738] 0
x[739] 1
x[740] 1
x[741] 0
x[742] 1
x[743] 0
x[744] 0
x[745] 1
x[746] 1
x[747] 0
x[748] 1
x[749] 0
x[750] 0
x[751] 1
x[752] 1
x[753] 0
x[754] 0
x[755] 1
x[756] 1
x[757] 0
x[758] 0
x[759] 1
x[760] 0
x[761] 0
x[762] 0
x[763] 0
x[764] 0
x[765] 0
x[766] 0
x[767] 0
x[768] 0
x[769] 0
x[770] 0
x[771] 1
x[772] 1
x[773] 0
x[774] 0
x[775] 1
x[776] 0
x[777] 0
x[778] 1
x[779] 1
x[780] 0
x[781] 0
x[782] 0
x[783] 0
x[784] 0
x[785] 0
x[786] 1
x[787] 0
x[788] 1
x[789] 1
x[790] 1
x[791] 1
x[792] 1
x[793] 0
x[794] 0
x[795] 1
x[796] 1
x[797] 0
x[798] 0
x[799] 1
x[800] 0
x[801] 0
x[802] 1
x[803] 1
x[804] 0
x[805] 1
x[806] 1
x[807] 1
x[808] 0
x[809] 0
x[810] 0
x[811] 1
x[812] 1
x[813] 1
x[814] 1
x[815] 1
x[816] 0
x[817] 0
x[818] 1
x[819] 1
x[820] 1
x[821] 0
x[822] 1
x[823] 1
x[824] 0
x[825] 0
x[826] 0
x[827] 0
x[828] 0
x[829] 1
x[830] 0
x[831] 1
x[832] 1
x[833] 1
x[834] 1
x[835] 0
x[836] 1
x[837] 0
x[838] 1
x[839] 1
x[840] 0
x[841] 1
x[842] 0
x[843] 0
x[844] 0
x[845] 0
x[846] 1
x[847] 0
x[848] 0
x[849] 0
x[850] 0
x[851] 1
x[852] 0
x[853] 0
x[854] 1
x[855] 1
x[856] 1
x[857] 0
x[858] 0
x[859] 1
x[860] 0
x[861] 1
x[862] 1
x[863] 0
x[864] 1
x[865] 1
x[866] 0
x[867] 1
x[868] 0
x[869] 1
x[870] 1
x[871] 1
x[872] 0
x[873] 1
x[874] 0
x[875] 0
x[876] 0
x[877] 0
x[878] 0
x[879] 1.0000002162400854e+00
x[880] 0
x[881] 1
x[882] 1
x[883] 0
x[884] 1
x[885] 0
x[886] 0
x[887] 1
x[888] 0
x[889] 1
x[890] 0
x[891] 0
x[892] 0
x[893] 0
x[894] 1
x[895] 1
x[896] 0
x[897] 0
x[898] 0
x[899] 1
x[900] 1
x[901] 1
x[902] 0
x[903] 0
x[904] 0
x[905] 1
x[906] 1
x[907] 1
x[908] 0
x[909] 1
x[910] 1
x[911] 1
x[912] 0
x[913] 0
x[914] 1
x[915] 0
x[916] 0
x[917] 1
x[918] 1
x[919] 1
x[920] 0
x[921] 0
x[922] 0
x[923] 0
x[924] 0
x[925] 0
x[926] 1
x[927] 0
x[928] 1
x[929] 1
x[930] 1
x[931] 1
x[932] 1
x[933] 1
x[934] 1
x[935] 0
x[936] 0
x[937] 1
x[938] 1
x[939] 0
x[940] 1
x[941] 1
x[942] 0
x[943] 0
x[944] 0
x[945] 0
x[946] 1
x[947] 1
x[948] 0
x[949] 1
x[950] 1
x[951] 1
x[952] 0
x[953] 1
x[954] 0
x[955] 1
x[956] 0
x[957] 1
x[958] 1
x[959] 0
x[960] 1
x[961] 0
x[962] 1
x[963] 1
x[964] 0
x[965] 1
x[966] 0
x[967] 1
x[968] 0
x[969] 0
x[970] 0
x[971] 1
x[972] 1
x[973] 0
x[974] 0
x[975] 0
x[976] 0
x[977] 1
x[978] 0
x[979] 0
x[980] 1
x[981] 0
x[982] 1
x[983] 1
x[984] 1
x[985] 0
x[986] 1
x[987] 0
x[988] 1
x[989] 0
x[990] 0
x[991] 0
x[992] 0
x[993] 1
x[994] 1
x[995] 1
x[996] 1
x[997] 0
x[998] 0
x[999] 0
